data/lp_files/q3/142_3.lp
\ Model foo
\ LP format - for model browsing. Use MPS format to capture full model detail.
Minimize
  z
Subject To
 allocateEach[1]: x[1,1] + x[2,1] + x[3,1] + x[4,1] + x[5,1] + x[6,1]
   + x[7,1] + x[8,1] = 1
 allocateEach[2]: x[1,2] + x[2,2] + x[3,2] + x[4,2] + x[5,2] + x[6,2]
   + x[7,2] + x[8,2] = 1
 allocateAllCash: cashProportion[1] + cashProportion[2] + cashProportion[3]
   + cashProportion[4] + cashProportion[5] + cashProportion[6]
   + cashProportion[7] + cashProportion[8] = 1
 findWorstP[1,2]: z + 0.1189060642092747 cashProportion[1]
   - 0.1189060642092747 cashProportion[2] + 0.5521997621878716 x[1,1]
   + 0.3288941736028538 x[1,2] - 0.5521997621878716 x[2,1]
   - 0.3288941736028538 x[2,2] >= 0
 findWorstP[1,3]: z + 0.1189060642092747 cashProportion[1]
   - 0.1189060642092747 cashProportion[3] + 0.5521997621878716 x[1,1]
   + 0.3288941736028538 x[1,2] - 0.5521997621878716 x[3,1]
   - 0.3288941736028538 x[3,2] >= 0
 findWorstP[1,4]: z + 0.1189060642092747 cashProportion[1]
   - 0.1189060642092747 cashProportion[4] + 0.5521997621878716 x[1,1]
   + 0.3288941736028538 x[1,2] - 0.5521997621878716 x[4,1]
   - 0.3288941736028538 x[4,2] >= 0
 findWorstP[1,5]: z + 0.1189060642092747 cashProportion[1]
   - 0.1189060642092747 cashProportion[5] + 0.5521997621878716 x[1,1]
   + 0.3288941736028538 x[1,2] - 0.5521997621878716 x[5,1]
   - 0.3288941736028538 x[5,2] >= 0
 findWorstP[1,6]: z + 0.1189060642092747 cashProportion[1]
   - 0.1189060642092747 cashProportion[6] + 0.5521997621878716 x[1,1]
   + 0.3288941736028538 x[1,2] - 0.5521997621878716 x[6,1]
   - 0.3288941736028538 x[6,2] >= 0
 findWorstP[1,7]: z + 0.1189060642092747 cashProportion[1]
   - 0.1189060642092747 cashProportion[7] + 0.5521997621878716 x[1,1]
   + 0.3288941736028538 x[1,2] - 0.5521997621878716 x[7,1]
   - 0.3288941736028538 x[7,2] >= 0
 findWorstP[1,8]: z + 0.1189060642092747 cashProportion[1]
   - 0.1189060642092747 cashProportion[8] + 0.5521997621878716 x[1,1]
   + 0.3288941736028538 x[1,2] - 0.5521997621878716 x[8,1]
   - 0.3288941736028538 x[8,2] >= 0
 findWorstP[2,1]: z - 0.1791633073546538 cashProportion[1]
   + 0.1791633073546538 cashProportion[2] - 0.480426408671504 x[1,1]
   - 0.3404102839738422 x[1,2] + 0.480426408671504 x[2,1]
   + 0.3404102839738422 x[2,2] >= 0
 findWorstP[2,3]: z + 0.1791633073546538 cashProportion[2]
   - 0.1791633073546538 cashProportion[3] + 0.480426408671504 x[2,1]
   + 0.3404102839738422 x[2,2] - 0.480426408671504 x[3,1]
   - 0.3404102839738422 x[3,2] >= 0
 findWorstP[2,4]: z + 0.1791633073546538 cashProportion[2]
   - 0.1791633073546538 cashProportion[4] + 0.480426408671504 x[2,1]
   + 0.3404102839738422 x[2,2] - 0.480426408671504 x[4,1]
   - 0.3404102839738422 x[4,2] >= 0
 findWorstP[2,5]: z + 0.1791633073546538 cashProportion[2]
   - 0.1791633073546538 cashProportion[5] + 0.480426408671504 x[2,1]
   + 0.3404102839738422 x[2,2] - 0.480426408671504 x[5,1]
   - 0.3404102839738422 x[5,2] >= 0
 findWorstP[2,6]: z + 0.1791633073546538 cashProportion[2]
   - 0.1791633073546538 cashProportion[6] + 0.480426408671504 x[2,1]
   + 0.3404102839738422 x[2,2] - 0.480426408671504 x[6,1]
   - 0.3404102839738422 x[6,2] >= 0
 findWorstP[2,7]: z + 0.1791633073546538 cashProportion[2]
   - 0.1791633073546538 cashProportion[7] + 0.480426408671504 x[2,1]
   + 0.3404102839738422 x[2,2] - 0.480426408671504 x[7,1]
   - 0.3404102839738422 x[7,2] >= 0
 findWorstP[2,8]: z + 0.1791633073546538 cashProportion[2]
   - 0.1791633073546538 cashProportion[8] + 0.480426408671504 x[2,1]
   + 0.3404102839738422 x[2,2] - 0.480426408671504 x[8,1]
   - 0.3404102839738422 x[8,2] >= 0
 findWorstP[3,1]: z - 0.1551470017841906 cashProportion[1]
   + 0.1551470017841906 cashProportion[3] - 0.4277402839190133 x[1,1]
   - 0.4171127142967962 x[1,2] + 0.4277402839190133 x[3,1]
   + 0.4171127142967962 x[3,2] >= 0
 findWorstP[3,2]: z - 0.1551470017841906 cashProportion[2]
   + 0.1551470017841906 cashProportion[3] - 0.4277402839190133 x[2,1]
   - 0.4171127142967962 x[2,2] + 0.4277402839190133 x[3,1]
   + 0.4171127142967962 x[3,2] >= 0
 findWorstP[3,4]: z + 0.1551470017841906 cashProportion[3]
   - 0.1551470017841906 cashProportion[4] + 0.4277402839190133 x[3,1]
   + 0.4171127142967962 x[3,2] - 0.4277402839190133 x[4,1]
   - 0.4171127142967962 x[4,2] >= 0
 findWorstP[3,5]: z + 0.1551470017841906 cashProportion[3]
   - 0.1551470017841906 cashProportion[5] + 0.4277402839190133 x[3,1]
   + 0.4171127142967962 x[3,2] - 0.4277402839190133 x[5,1]
   - 0.4171127142967962 x[5,2] >= 0
 findWorstP[3,6]: z + 0.1551470017841906 cashProportion[3]
   - 0.1551470017841906 cashProportion[6] + 0.4277402839190133 x[3,1]
   + 0.4171127142967962 x[3,2] - 0.4277402839190133 x[6,1]
   - 0.4171127142967962 x[6,2] >= 0
 findWorstP[3,7]: z + 0.1551470017841906 cashProportion[3]
   - 0.1551470017841906 cashProportion[7] + 0.4277402839190133 x[3,1]
   + 0.4171127142967962 x[3,2] - 0.4277402839190133 x[7,1]
   - 0.4171127142967962 x[7,2] >= 0
 findWorstP[3,8]: z + 0.1551470017841906 cashProportion[3]
   - 0.1551470017841906 cashProportion[8] + 0.4277402839190133 x[3,1]
   + 0.4171127142967962 x[3,2] - 0.4277402839190133 x[8,1]
   - 0.4171127142967962 x[8,2] >= 0
 findWorstP[4,1]: z - 0.2279462046956919 cashProportion[1]
   + 0.2279462046956919 cashProportion[4] - 0.1587645315705494 x[1,1]
   - 0.6132892637337589 x[1,2] + 0.1587645315705494 x[4,1]
   + 0.6132892637337589 x[4,2] >= 0
 findWorstP[4,2]: z - 0.2279462046956919 cashProportion[2]
   + 0.2279462046956919 cashProportion[4] - 0.1587645315705494 x[2,1]
   - 0.6132892637337589 x[2,2] + 0.1587645315705494 x[4,1]
   + 0.6132892637337589 x[4,2] >= 0
 findWorstP[4,3]: z - 0.2279462046956919 cashProportion[3]
   + 0.2279462046956919 cashProportion[4] - 0.1587645315705494 x[3,1]
   - 0.6132892637337589 x[3,2] + 0.1587645315705494 x[4,1]
   + 0.6132892637337589 x[4,2] >= 0
 findWorstP[4,5]: z + 0.2279462046956919 cashProportion[4]
   - 0.2279462046956919 cashProportion[5] + 0.1587645315705494 x[4,1]
   + 0.6132892637337589 x[4,2] - 0.1587645315705494 x[5,1]
   - 0.6132892637337589 x[5,2] >= 0
 findWorstP[4,6]: z + 0.2279462046956919 cashProportion[4]
   - 0.2279462046956919 cashProportion[6] + 0.1587645315705494 x[4,1]
   + 0.6132892637337589 x[4,2] - 0.1587645315705494 x[6,1]
   - 0.6132892637337589 x[6,2] >= 0
 findWorstP[4,7]: z + 0.2279462046956919 cashProportion[4]
   - 0.2279462046956919 cashProportion[7] + 0.1587645315705494 x[4,1]
   + 0.6132892637337589 x[4,2] - 0.1587645315705494 x[7,1]
   - 0.6132892637337589 x[7,2] >= 0
 findWorstP[4,8]: z + 0.2279462046956919 cashProportion[4]
   - 0.2279462046956919 cashProportion[8] + 0.1587645315705494 x[4,1]
   + 0.6132892637337589 x[4,2] - 0.1587645315705494 x[8,1]
   - 0.6132892637337589 x[8,2] >= 0
 findWorstP[5,1]: z - 0.2156566745740781 cashProportion[1]
   + 0.2156566745740781 cashProportion[5] - 0.2354970886348933 x[1,1]
   - 0.5488462367910287 x[1,2] + 0.2354970886348933 x[5,1]
   + 0.5488462367910287 x[5,2] >= 0
 findWorstP[5,2]: z - 0.2156566745740781 cashProportion[2]
   + 0.2156566745740781 cashProportion[5] - 0.2354970886348933 x[2,1]
   - 0.5488462367910287 x[2,2] + 0.2354970886348933 x[5,1]
   + 0.5488462367910287 x[5,2] >= 0
 findWorstP[5,3]: z - 0.2156566745740781 cashProportion[3]
   + 0.2156566745740781 cashProportion[5] - 0.2354970886348933 x[3,1]
   - 0.5488462367910287 x[3,2] + 0.2354970886348933 x[5,1]
   + 0.5488462367910287 x[5,2] >= 0
 findWorstP[5,4]: z - 0.2156566745740781 cashProportion[4]
   + 0.2156566745740781 cashProportion[5] - 0.2354970886348933 x[4,1]
   - 0.5488462367910287 x[4,2] + 0.2354970886348933 x[5,1]
   + 0.5488462367910287 x[5,2] >= 0
 findWorstP[5,6]: z + 0.2156566745740781 cashProportion[5]
   - 0.2156566745740781 cashProportion[6] + 0.2354970886348933 x[5,1]
   + 0.5488462367910287 x[5,2] - 0.2354970886348933 x[6,1]
   - 0.5488462367910287 x[6,2] >= 0
 findWorstP[5,7]: z + 0.2156566745740781 cashProportion[5]
   - 0.2156566745740781 cashProportion[7] + 0.2354970886348933 x[5,1]
   + 0.5488462367910287 x[5,2] - 0.2354970886348933 x[7,1]
   - 0.5488462367910287 x[7,2] >= 0
 findWorstP[5,8]: z + 0.2156566745740781 cashProportion[5]
   - 0.2156566745740781 cashProportion[8] + 0.2354970886348933 x[5,1]
   + 0.5488462367910287 x[5,2] - 0.2354970886348933 x[8,1]
   - 0.5488462367910287 x[8,2] >= 0
 findWorstP[6,1]: z - 0.1436472024707319 cashProportion[1]
   + 0.1436472024707319 cashProportion[6] - 0.3804496157437334 x[1,1]
   - 0.4759031817855348 x[1,2] + 0.3804496157437334 x[6,1]
   + 0.4759031817855348 x[6,2] >= 0
 findWorstP[6,2]: z - 0.1436472024707319 cashProportion[2]
   + 0.1436472024707319 cashProportion[6] - 0.3804496157437334 x[2,1]
   - 0.4759031817855348 x[2,2] + 0.3804496157437334 x[6,1]
   + 0.4759031817855348 x[6,2] >= 0
 findWorstP[6,3]: z - 0.1436472024707319 cashProportion[3]
   + 0.1436472024707319 cashProportion[6] - 0.3804496157437334 x[3,1]
   - 0.4759031817855348 x[3,2] + 0.3804496157437334 x[6,1]
   + 0.4759031817855348 x[6,2] >= 0
 findWorstP[6,4]: z - 0.1436472024707319 cashProportion[4]
   + 0.1436472024707319 cashProportion[6] - 0.3804496157437334 x[4,1]
   - 0.4759031817855348 x[4,2] + 0.3804496157437334 x[6,1]
   + 0.4759031817855348 x[6,2] >= 0
 findWorstP[6,5]: z - 0.1436472024707319 cashProportion[5]
   + 0.1436472024707319 cashProportion[6] - 0.3804496157437334 x[5,1]
   - 0.4759031817855348 x[5,2] + 0.3804496157437334 x[6,1]
   + 0.4759031817855348 x[6,2] >= 0
 findWorstP[6,7]: z + 0.1436472024707319 cashProportion[6]
   - 0.1436472024707319 cashProportion[7] + 0.3804496157437334 x[6,1]
   + 0.4759031817855348 x[6,2] - 0.3804496157437334 x[7,1]
   - 0.4759031817855348 x[7,2] >= 0
 findWorstP[6,8]: z + 0.1436472024707319 cashProportion[6]
   - 0.1436472024707319 cashProportion[8] + 0.3804496157437334 x[6,1]
   + 0.4759031817855348 x[6,2] - 0.3804496157437334 x[8,1]
   - 0.4759031817855348 x[8,2] >= 0
 findWorstP[7,1]: z - 0.1557875058420315 cashProportion[1]
   + 0.1557875058420315 cashProportion[7] - 0.6034429038791089 x[1,1]
   - 0.2407695902788596 x[1,2] + 0.6034429038791089 x[7,1]
   + 0.2407695902788596 x[7,2] >= 0
 findWorstP[7,2]: z - 0.1557875058420315 cashProportion[2]
   + 0.1557875058420315 cashProportion[7] - 0.6034429038791089 x[2,1]
   - 0.2407695902788596 x[2,2] + 0.6034429038791089 x[7,1]
   + 0.2407695902788596 x[7,2] >= 0
 findWorstP[7,3]: z - 0.1557875058420315 cashProportion[3]
   + 0.1557875058420315 cashProportion[7] - 0.6034429038791089 x[3,1]
   - 0.2407695902788596 x[3,2] + 0.6034429038791089 x[7,1]
   + 0.2407695902788596 x[7,2] >= 0
 findWorstP[7,4]: z - 0.1557875058420315 cashProportion[4]
   + 0.1557875058420315 cashProportion[7] - 0.6034429038791089 x[4,1]
   - 0.2407695902788596 x[4,2] + 0.6034429038791089 x[7,1]
   + 0.2407695902788596 x[7,2] >= 0
 findWorstP[7,5]: z - 0.1557875058420315 cashProportion[5]
   + 0.1557875058420315 cashProportion[7] - 0.6034429038791089 x[5,1]
   - 0.2407695902788596 x[5,2] + 0.6034429038791089 x[7,1]
   + 0.2407695902788596 x[7,2] >= 0
 findWorstP[7,6]: z - 0.1557875058420315 cashProportion[6]
   + 0.1557875058420315 cashProportion[7] - 0.6034429038791089 x[6,1]
   - 0.2407695902788596 x[6,2] + 0.6034429038791089 x[7,1]
   + 0.2407695902788596 x[7,2] >= 0
 findWorstP[7,8]: z + 0.1557875058420315 cashProportion[7]
   - 0.1557875058420315 cashProportion[8] + 0.6034429038791089 x[7,1]
   + 0.2407695902788596 x[7,2] - 0.6034429038791089 x[8,1]
   - 0.2407695902788596 x[8,2] >= 0
 findWorstP[8,1]: z - 0.234246896228625 cashProportion[1]
   + 0.234246896228625 cashProportion[8] - 0.0660576247364722 x[1,1]
   - 0.6996954790349028 x[1,2] + 0.0660576247364722 x[8,1]
   + 0.6996954790349028 x[8,2] >= 0
 findWorstP[8,2]: z - 0.234246896228625 cashProportion[2]
   + 0.234246896228625 cashProportion[8] - 0.0660576247364722 x[2,1]
   - 0.6996954790349028 x[2,2] + 0.0660576247364722 x[8,1]
   + 0.6996954790349028 x[8,2] >= 0
 findWorstP[8,3]: z - 0.234246896228625 cashProportion[3]
   + 0.234246896228625 cashProportion[8] - 0.0660576247364722 x[3,1]
   - 0.6996954790349028 x[3,2] + 0.0660576247364722 x[8,1]
   + 0.6996954790349028 x[8,2] >= 0
 findWorstP[8,4]: z - 0.234246896228625 cashProportion[4]
   + 0.234246896228625 cashProportion[8] - 0.0660576247364722 x[4,1]
   - 0.6996954790349028 x[4,2] + 0.0660576247364722 x[8,1]
   + 0.6996954790349028 x[8,2] >= 0
 findWorstP[8,5]: z - 0.234246896228625 cashProportion[5]
   + 0.234246896228625 cashProportion[8] - 0.0660576247364722 x[5,1]
   - 0.6996954790349028 x[5,2] + 0.0660576247364722 x[8,1]
   + 0.6996954790349028 x[8,2] >= 0
 findWorstP[8,6]: z - 0.234246896228625 cashProportion[6]
   + 0.234246896228625 cashProportion[8] - 0.0660576247364722 x[6,1]
   - 0.6996954790349028 x[6,2] + 0.0660576247364722 x[8,1]
   + 0.6996954790349028 x[8,2] >= 0
 findWorstP[8,7]: z - 0.234246896228625 cashProportion[7]
   + 0.234246896228625 cashProportion[8] - 0.0660576247364722 x[7,1]
   - 0.6996954790349028 x[7,2] + 0.0660576247364722 x[8,1]
   + 0.6996954790349028 x[8,2] >= 0
Bounds
 z <= 1
 -infinity <= cashProportion[1] <= 1
 -infinity <= cashProportion[2] <= 1
 -infinity <= cashProportion[3] <= 1
 -infinity <= cashProportion[4] <= 1
 -infinity <= cashProportion[5] <= 1
 -infinity <= cashProportion[6] <= 1
 -infinity <= cashProportion[7] <= 1
 -infinity <= cashProportion[8] <= 1
Binaries
 x[1,1] x[1,2] x[2,1] x[2,2] x[3,1] x[3,2] x[4,1] x[4,2] x[5,1] x[5,2]
 x[6,1] x[6,2] x[7,1] x[7,2] x[8,1] x[8,2]
End
